Problem:    
Rows:       260
Columns:    89 (72 integer, 72 binary)
Non-zeros:  936
Status:     INTEGER OPTIMAL
Objective:  value = 40.771111 (MINimum)

   No.   Row name        Activity     Lower bound   Upper bound
------ ------------    ------------- ------------- -------------
     1 r.5                   1064.77             0               
     2 r.6                  -999.285      -1007.39               
     3 r.7                   40.7711             0               
     4 r.8                    24.715      -1007.49               
     5 r.9                   40.7711             0               
     6 r.10                  27.9644      -1007.41               
     7 r.11                  1064.77             0               
     8 r.12                 -1008.36      -1008.67               
     9 r.13                  1064.77             0               
    10 r.14                 -1022.64      -1023.58               
    11 r.15                  40.7711             0               
    12 r.16                   24.715         -1022               
    13 r.17                  1064.77             0               
    14 r.18                 -1023.06      -1023.37               
    15 r.19                  40.7711             0               
    16 r.20                  0.30975      -1021.54               
    17 r.21                  40.7711             0               
    18 r.22                  26.5702      -1015.97               
    19 r.23                  1064.77             0               
    20 r.24                  -997.43      -1016.58               
    21 r.25                  1064.77             0               
    22 r.26                 -1023.69      -1023.69               
    23 r.27                  40.7711             0               
    24 r.28                  0.30975      -1022.68               
    25 r.29                  1064.77             0               
    26 r.30                 -983.229      -1007.94               
    27 r.31                  40.7711             0               
    28 r.32                  40.7711       -1012.3               
    29 r.33                  40.7711             0               
    30 r.34                  40.7711      -1001.05               
    31 r.35                  1064.77             0               
    32 r.36                 -983.229       -1009.8               
    33 r.37                        1             1             = 
    34 r.38                        1             1             = 
    35 r.39                        1             1             = 
    36 r.40                        1             1             = 
    37 r.41                        1             1             = 
    38 r.42                        1             1             = 
    39 r.43                        1             1             = 
    40 r.44                        1             1             = 
    41 r.45                     1025             2               
    42 r.46                    -1025         -1025               
    43 r.47                  2051.25      -1007.41               
    44 r.48                     1025             2               
    45 r.49                    -1025         -1025               
    46 r.50                  2038.93      -1008.67               
    47 r.51                        2             2               
    48 r.52                       -2         -1025               
    49 r.53                 -23.3526      -1023.58               
    50 r.54                     1024             2               
    51 r.55                    -1024         -1025               
    52 r.56                     2048         -1022               
    53 r.57                        2             2               
    54 r.58                       -2         -1025               
    55 r.59                 -23.7716      -1023.37               
    56 r.60                     1024             2               
    57 r.61                    -1024         -1025               
    58 r.62                  2023.59      -1021.54               
    59 r.63                     1025             2               
    60 r.64                    -1025         -1025               
    61 r.65                  2049.86      -1015.97               
    62 r.66                     1025             2               
    63 r.67                    -1025         -1025               
    64 r.68                  2049.86      -1016.58               
    65 r.69                  7.79593             0               
    66 r.70                  24.4053             0               
    67 r.71                  7.79593             0               
    68 r.72                  24.4053             0               
    69 r.73                 -1007.94      -1007.94               
    70 r.74                  16.0561       -1012.3               
    71 r.75                 -1007.94      -1007.94               
    72 r.76                  16.0561       -1012.3               
    73 r.77                  16.0561      -1001.05               
    74 r.78                 -1007.94       -1009.8               
    75 r.79                  16.0561      -1001.05               
    76 r.80                 -1007.94       -1009.8               
    77 r.81                     1025             2               
    78 r.82                    -1025         -1025               
    79 r.83                     2048       16.6093               
    80 r.84                     1025             2               
    81 r.85                    -1025         -1025               
    82 r.86                  2053.56       16.5131               
    83 r.87                     1025             2               
    84 r.88                    -1025         -1025               
    85 r.89                  2024.65      -1023.58               
    86 r.90                     1025             2               
    87 r.91                    -1025         -1025               
    88 r.92                  2053.56         -1022               
    89 r.93                     1025             2               
    90 r.94                    -1025         -1025               
    91 r.95                  2024.23      -1023.37               
    92 r.96                     1025             2               
    93 r.97                    -1025         -1025               
    94 r.98                  2029.16      -1021.54               
    95 r.99                     1024             2               
    96 r.100                   -1024         -1025               
    97 r.101                 2049.86      -1015.97               
    98 r.102                       2             2               
    99 r.103                      -2         -1025               
   100 r.104                -1016.58      -1016.58               
   101 r.105                 27.6546             0               
   102 r.106                       0             0               
   103 r.107                 27.6546             0               
   104 r.108                       0             0               
   105 r.109                -1007.94      -1007.94               
   106 r.110                 16.0561       -1012.3               
   107 r.111                -1002.38      -1007.94               
   108 r.112                 21.6175       -1012.3               
   109 r.113                    1024             2               
   110 r.114                   -1024         -1025               
   111 r.115                 2064.06      -1001.05               
   112 r.116                       2             2               
   113 r.117                      -2         -1025               
   114 r.118                -1002.38       -1009.8               
   115 r.119                       2             2               
   116 r.120                      -2         -1025               
   117 r.121                 23.3526       16.6093               
   118 r.122                    1024             2               
   119 r.123                   -1024         -1025               
   120 r.124                    2048       16.5131               
   121 r.125                    1025             2               
   122 r.126                   -1025         -1025               
   123 r.127                  2074.6       16.5921               
   124 r.128                    1025             2               
   125 r.129                   -1025         -1025               
   126 r.130                 2038.93       15.3348               
   127 r.131                       2             2               
   128 r.132                      -2         -1025               
   129 r.133               -0.418983      -1023.37               
   130 r.134                    1024             2               
   131 r.135                   -1024         -1025               
   132 r.136                 2023.59      -1021.54               
   133 r.137                    1025             2               
   134 r.138                   -1025         -1025               
   135 r.139                 2073.21      -1015.97               
   136 r.140                    1025             2               
   137 r.141                   -1025         -1025               
   138 r.142                 2049.86      -1016.58               
   139 r.143                0.633655             0               
   140 r.144                 24.4053             0               
   141 r.145                0.633655             0               
   142 r.146                 24.4053             0               
   143 r.147                -984.591      -1007.94               
   144 r.148                 39.4087       -1012.3               
   145 r.149                -1007.94      -1007.94               
   146 r.150                 16.0561       -1012.3               
   147 r.151                 39.4087      -1001.05               
   148 r.152                -984.591       -1009.8               
   149 r.153                 16.0561      -1001.05               
   150 r.154                -1007.94       -1009.8               
   151 r.155                       2             2               
   152 r.156                      -2         -1025               
   153 r.157                 23.7716       16.6093               
   154 r.158                    1024             2               
   155 r.159                   -1024         -1025               
   156 r.160                 2072.41       16.5131               
   157 r.161                    1025             2               
   158 r.162                   -1025         -1025               
   159 r.163                 2075.02       16.5921               
   160 r.164                    1025             2               
   161 r.165                   -1025         -1025               
   162 r.166                 2063.33       15.3348               
   163 r.167                       2             2               
   164 r.168                      -2         -1025               
   165 r.169                0.418983      0.418983               
   166 r.170                    1024             2               
   167 r.171                   -1024         -1025               
   168 r.172                 2072.41       1.99839               
   169 r.173                    1025             2               
   170 r.174                   -1025         -1025               
   171 r.175                 2073.63      -1015.97               
   172 r.176                    1025             2               
   173 r.177                   -1025         -1025               
   174 r.178                 2074.26      -1016.58               
   175 r.179                       0             0               
   176 r.180                       0             0               
   177 r.181                       0             0               
   178 r.182                       0             0               
   179 r.183                -984.172      -1007.94               
   180 r.184                 39.8277       -1012.3               
   181 r.185                -983.539      -1007.94               
   182 r.186                 40.4614       -1012.3               
   183 r.187                    1025             2               
   184 r.188                   -1025         -1025               
   185 r.189                 2087.83      -1001.05               
   186 r.190                    1025             2               
   187 r.191                   -1025         -1025               
   188 r.192                 2088.46       -1009.8               
   189 r.193                    1025             2               
   190 r.194                   -1025         -1025               
   191 r.195                 2046.14       16.6093               
   192 r.196                    1025             2               
   193 r.197                   -1025         -1025               
   194 r.198                 2046.14       16.5131               
   195 r.199                    1024             2               
   196 r.200                   -1024         -1025               
   197 r.201                 2049.39       16.5921               
   198 r.202                       2             2               
   199 r.203                      -2         -1025               
   200 r.204                 1013.07       15.3348               
   201 r.205                    1025             2               
   202 r.206                   -1025         -1025               
   203 r.207                 2022.79      0.418983               
   204 r.208                    1025             2               
   205 r.209                   -1025         -1025               
   206 r.210                 2046.14       1.99839               
   207 r.211                    1025             2               
   208 r.212                   -1025         -1025               
   209 r.213                 2022.37      0.633656               
   210 r.214                    1025             2               
   211 r.215                   -1025         -1025               
   212 r.216                 2021.74        2.4587               
   213 r.217                 26.2604             0               
   214 r.218                 18.8439             0               
   215 r.219                 26.2604             0               
   216 r.220                 18.8439             0               
   217 r.221                    1025             2               
   218 r.222                   -1025         -1025               
   219 r.223                  2062.2      -1007.94               
   220 r.224                    1025             2               
   221 r.225                   -1025         -1025               
   222 r.226                  2062.2       -1012.3               
   223 r.227                 14.2009      -1001.05               
   224 r.228                 -1009.8       -1009.8               
   225 r.229                 14.2009      -1001.05               
   226 r.230                 -1009.8       -1009.8               
   227 r.231                -983.539      -1007.94               
   228 r.232                 40.4614       -1012.3               
   229 r.233                -983.539      -1007.94               
   230 r.234                 40.4614       -1012.3               
   231 r.235                    1025             2               
   232 r.236                   -1025         -1025               
   233 r.237                  2033.8        8.0315               
   234 r.238                    1025             2               
   235 r.239                   -1025         -1025               
   236 r.240                  2033.8       7.41654               
   237 r.241                    1025             2               
   238 r.242                   -1025         -1025               
   239 r.243                    2048      -1001.05               
   240 r.244                    1025             2               
   241 r.245                   -1025         -1025               
   242 r.246                    2048       -1009.8               
   243 r.247                    1024             2               
   244 r.248                   -1024         -1025               
   245 r.249                 2035.19       16.5921               
   246 r.250                       2             2               
   247 r.251                      -2         -1025               
   248 r.252                 998.873       15.3348               
   249 r.253                    1025             2               
   250 r.254                   -1025         -1025               
   251 r.255                 2008.17      0.633656               
   252 r.256                    1025             2               
   253 r.257                   -1025         -1025               
   254 r.258                 2007.54        2.4587               
   255 r.259                    1025             2               
   256 r.260                   -1025         -1025               
   257 r.261                    2048       16.0561               
   258 r.262                    1025             2               
   259 r.263                   -1025         -1025               
   260 r.264                    2048       11.6955               

   No. Column name       Activity     Lower bound   Upper bound
------ ------------    ------------- ------------- -------------
     1 tt                    40.7711             0               
     2 s_1_1        *              1             0             1 
     3 t_1_1                 16.0561             0               
     4 s_1_7        *              1             0             1 
     5 s_2_1        *              0             0             1 
     6 t_2_1                 16.0561             0               
     7 s_2_7        *              0             0             1 
     8 s_1_2        *              0             0             1 
     9 t_1_2                 16.0561             0               
    10 s_2_2        *              1             0             1 
    11 t_2_2                 21.6175             0               
    12 s_1_3        *              1             0             1 
    13 t_1_3                 39.4087             0               
    14 s_2_3        *              0             0             1 
    15 t_2_3                 16.0561             0               
    16 s_1_4        *              1             0             1 
    17 t_1_4                 39.8277             0               
    18 s_2_4        *              0             0             1 
    19 t_2_4                 40.4614             0               
    20 s_1_5        *              0             0             1 
    21 t_1_5                 14.2009             0               
    22 s_1_8        *              0             0             1 
    23 s_2_5        *              1             0             1 
    24 t_2_5                 14.2009             0               
    25 s_2_8        *              1             0             1 
    26 s_1_6        *              1             0             1 
    27 t_1_6                 40.4614             0               
    28 s_2_6        *              0             0             1 
    29 t_2_6                 40.4614             0               
    30 t_1_7                       0             0               
    31 t_2_7                       0             0               
    32 t_1_8                       0             0               
    33 t_2_8                       0             0               
    34 r_1_1_2      *              1             0             1 
    35 u_1_1_2      *              0             0             1 
    36 r_2_1_2      *              1             0             1 
    37 u_2_1_2      *              0             0             1 
    38 r_1_1_3      *              0             0             1 
    39 u_1_1_3      *              0             0             1 
    40 r_2_1_3      *              1             0             1 
    41 u_2_1_3      *              0             0             1 
    42 r_1_1_4      *              0             0             1 
    43 u_1_1_4      *              0             0             1 
    44 r_2_1_4      *              1             0             1 
    45 u_2_1_4      *              0             0             1 
    46 r_1_1_5      *              1             0             1 
    47 u_1_1_5      *              0             0             1 
    48 r_2_1_5      *              1             0             1 
    49 u_2_1_5      *              0             0             1 
    50 r_1_2_3      *              1             0             1 
    51 u_1_2_3      *              0             0             1 
    52 r_2_2_3      *              1             0             1 
    53 u_2_2_3      *              0             0             1 
    54 r_1_2_4      *              1             0             1 
    55 u_1_2_4      *              0             0             1 
    56 r_2_2_4      *              1             0             1 
    57 u_2_2_4      *              0             0             1 
    58 r_1_2_5      *              1             0             1 
    59 u_1_2_5      *              0             0             1 
    60 r_2_2_5      *              0             0             1 
    61 u_2_2_5      *              1             0             1 
    62 r_1_2_8      *              1             0             1 
    63 u_1_2_8      *              0             0             1 
    64 r_2_2_8      *              0             0             1 
    65 u_2_2_8      *              1             0             1 
    66 r_1_3_4      *              0             0             1 
    67 u_1_3_4      *              0             0             1 
    68 r_2_3_4      *              1             0             1 
    69 u_2_3_4      *              0             0             1 
    70 r_1_3_5      *              1             0             1 
    71 u_1_3_5      *              0             0             1 
    72 r_2_3_5      *              1             0             1 
    73 u_2_3_5      *              0             0             1 
    74 r_1_4_5      *              1             0             1 
    75 u_1_4_5      *              0             0             1 
    76 r_2_4_5      *              1             0             1 
    77 u_2_4_5      *              0             0             1 
    78 r_1_4_8      *              1             0             1 
    79 u_1_4_8      *              0             0             1 
    80 r_2_4_8      *              1             0             1 
    81 u_2_4_8      *              0             0             1 
    82 r_1_5_7      *              1             0             1 
    83 u_1_5_7      *              0             0             1 
    84 r_2_5_7      *              1             0             1 
    85 u_2_5_7      *              0             0             1 
    86 r_1_7_8      *              1             0             1 
    87 u_1_7_8      *              0             0             1 
    88 r_2_7_8      *              1             0             1 
    89 u_2_7_8      *              0             0             1 

Integer feasibility conditions:

KKT.PE: max.abs.err = 4.55e-13 on row 43
        max.rel.err = 1.11e-16 on row 236
        High quality

KKT.PB: max.abs.err = 2.78e-15 on row 165
        max.rel.err = 1.96e-15 on row 165
        High quality

End of output
